(set-info :smt-lib-version 2.6)
(set-logic QF_NRA)
(set-info :source |Benchmarks generated from hycomp (https://es-static.fbk.eu/tools/hycomp/). BMC instances of non-linear hybrid automata taken from: Alessandro Cimatti, Sergio Mover, Stefano Tonetta, A quantifier-free SMT encoding of non-linear hybrid automata, FMCAD 2012 and Alessandro Cimatti, Sergio Mover, Stefano Tonetta, Quantier-free encoding of invariants for Hybrid Systems, Formal Methods in System Design. This instance solves a BMC problem of depth 2 and uses the quantifier free encoding with lemmas encoding. Contacts: Sergio Mover (mover@fbk.eu), Stefano Tonetta (tonettas@fbk.eu), Alessandro Cimatti (cimatti@fbk.eu).|)
(set-info :category "industrial")
(set-info :status sat)
;; MathSAT API call trace
;; generated on Mon Mar 19 10:48:12 2012
(declare-fun b.EVENT.0__AT2 () Bool)
(declare-fun b.counter.3__AT1 () Bool)
(declare-fun b.counter.1__AT2 () Bool)
(declare-fun b.EVENT.1__AT0 () Bool)
(declare-fun b.x__AT0 () Real)
(declare-fun b.EVENT.1__AT2 () Bool)
(declare-fun b.counter.2__AT2 () Bool)
(declare-fun b.speed_x__AT1 () Real)
(declare-fun b.counter.3__AT2 () Bool)
(declare-fun b.time__AT1 () Real)
(declare-fun g__AT0 () Real)
(declare-fun b.y__AT0 () Real)
(declare-fun b.EVENT.0__AT1 () Bool)
(declare-fun b.speed_y__AT1 () Real)
(declare-fun b.delta__AT1 () Real)
(declare-fun b.counter.0__AT0 () Bool)
(declare-fun b.EVENT.1__AT1 () Bool)
(declare-fun b.speed_x__AT2 () Real)
(declare-fun b.counter.1__AT0 () Bool)
(declare-fun b.delta__AT0 () Real)
(declare-fun b.speed_y__AT2 () Real)
(declare-fun b.EVENT.0__AT0 () Bool)
(declare-fun b.x__AT1 () Real)
(declare-fun b.speed_y__AT0 () Real)
(declare-fun b.counter.3__AT0 () Bool)
(declare-fun b.event_is_timed__AT0 () Bool)
(declare-fun b.event_is_timed__AT2 () Bool)
(declare-fun speed_loss__AT0 () Real)
(declare-fun b.y__AT1 () Real)
(declare-fun b.event_is_timed__AT1 () Bool)
(declare-fun b.counter.0__AT1 () Bool)
(declare-fun b.speed_x__AT0 () Real)
(declare-fun b.time__AT2 () Real)
(declare-fun b.counter.1__AT1 () Bool)
(declare-fun b.y__AT2 () Real)
(declare-fun b.time__AT0 () Real)
(declare-fun b.counter.2__AT0 () Bool)
(declare-fun b.delta__AT2 () Real)
(declare-fun b.counter.2__AT1 () Bool)
(declare-fun b.counter.0__AT2 () Bool)
(declare-fun b.x__AT2 () Real)
(assert (let ((.def_74 (* (- 1.0) g__AT0)))
(let ((.def_75 (* (/ 1 2) .def_74)))
(let ((.def_82 (* 2.0 .def_75)))
(let ((.def_126 (* (- 1.0) .def_82)))
(let ((.def_576 (* .def_126 b.delta__AT2)))
(let ((.def_579 (<= .def_576 b.speed_y__AT2)))
(let ((.def_586 (not .def_579)))
(let ((.def_539 (<= 0.0 b.speed_y__AT2)))
(let ((.def_587 (or .def_539 .def_586)))
(let ((.def_577 (<= b.speed_y__AT2 .def_576)))
(let ((.def_553 (<= b.speed_y__AT2 0.0 )))
(let ((.def_554 (not .def_553)))
(let ((.def_585 (or .def_554 .def_577)))
(let ((.def_588 (and .def_585 .def_587)))
(let ((.def_117 (<= g__AT0 0.0 )))
(let ((.def_589 (or .def_117 .def_588)))
(let ((.def_581 (not .def_577)))
(let ((.def_582 (or .def_553 .def_581)))
(let ((.def_540 (not .def_539)))
(let ((.def_580 (or .def_540 .def_579)))
(let ((.def_583 (and .def_580 .def_582)))
(let ((.def_122 (<= 0.0 g__AT0)))
(let ((.def_584 (or .def_122 .def_583)))
(let ((.def_590 (and .def_584 .def_589)))
(let ((.def_578 (and .def_553 .def_577)))
(let ((.def_591 (and .def_578 .def_590)))
(let ((.def_535 (* .def_82 b.delta__AT2)))
(let ((.def_536 (+ b.speed_y__AT2 .def_535)))
(let ((.def_551 (<= .def_536 0.0 )))
(let ((.def_552 (not .def_551)))
(let ((.def_571 (or .def_552 .def_553)))
(let ((.def_537 (<= 0.0 .def_536)))
(let ((.def_570 (or .def_537 .def_540)))
(let ((.def_572 (and .def_570 .def_571)))
(let ((.def_573 (or .def_122 .def_572)))
(let ((.def_538 (not .def_537)))
(let ((.def_567 (or .def_538 .def_539)))
(let ((.def_566 (or .def_551 .def_554)))
(let ((.def_568 (and .def_566 .def_567)))
(let ((.def_569 (or .def_117 .def_568)))
(let ((.def_574 (and .def_569 .def_573)))
(let ((.def_565 (and .def_537 .def_539)))
(let ((.def_575 (and .def_565 .def_574)))
(let ((.def_592 (or .def_575 .def_591)))
(let ((.def_530 (* b.speed_y__AT2 b.delta__AT2)))
(let ((.def_528 (* b.delta__AT2 b.delta__AT2)))
(let ((.def_529 (* .def_75 .def_528)))
(let ((.def_531 (+ .def_529 .def_530)))
(let ((.def_532 (+ b.y__AT2 .def_531)))
(let ((.def_545 (<= .def_532 0.0 )))
(let ((.def_559 (not .def_545)))
(let ((.def_543 (<= b.y__AT2 0.0 )))
(let ((.def_560 (or .def_543 .def_559)))
(let ((.def_518 (<= 0.0 b.y__AT2)))
(let ((.def_557 (not .def_518)))
(let ((.def_533 (<= 0.0 .def_532)))
(let ((.def_558 (or .def_533 .def_557)))
(let ((.def_561 (and .def_558 .def_560)))
(let ((.def_555 (or .def_552 .def_554)))
(let ((.def_556 (not .def_555)))
(let ((.def_562 (or .def_556 .def_561)))
(let ((.def_547 (not .def_533)))
(let ((.def_548 (or .def_518 .def_547)))
(let ((.def_544 (not .def_543)))
(let ((.def_546 (or .def_544 .def_545)))
(let ((.def_549 (and .def_546 .def_548)))
(let ((.def_541 (or .def_538 .def_540)))
(let ((.def_542 (not .def_541)))
(let ((.def_550 (or .def_542 .def_549)))
(let ((.def_563 (and .def_550 .def_562)))
(let ((.def_534 (and .def_518 .def_533)))
(let ((.def_564 (and .def_534 .def_563)))
(let ((.def_593 (and .def_564 .def_592)))
(let ((.def_55 (<= g__AT0 10.0 )))
(let ((.def_54 (<= 8.0 g__AT0)))
(let ((.def_56 (and .def_54 .def_55)))
(let ((.def_594 (and .def_56 .def_593)))
(let ((.def_63 (<= speed_loss__AT0 (/ 1 2))))
(let ((.def_60 (<= (/ 1 10) speed_loss__AT0)))
(let ((.def_64 (and .def_60 .def_63)))
(let ((.def_595 (and .def_64 .def_594)))
(let ((.def_201 (not b.counter.0__AT1)))
(let ((.def_189 (not b.counter.1__AT1)))
(let ((.def_522 (and .def_189 .def_201)))
(let ((.def_196 (not b.counter.2__AT1)))
(let ((.def_523 (and .def_196 .def_522)))
(let ((.def_211 (not b.counter.3__AT1)))
(let ((.def_524 (and .def_211 .def_523)))
(let ((.def_65 (and .def_56 .def_64)))
(let ((.def_519 (and .def_65 .def_518)))
(let ((.def_515 (not b.EVENT.0__AT2)))
(let ((.def_513 (not b.EVENT.1__AT2)))
(let ((.def_516 (or .def_513 .def_515)))
(let ((.def_6 (not b.counter.0__AT2)))
(let ((.def_4 (not b.counter.1__AT2)))
(let ((.def_506 (or .def_4 .def_6)))
(let ((.def_510 (or b.counter.3__AT2 .def_506)))
(let ((.def_507 (or b.counter.2__AT2 .def_506)))
(let ((.def_9 (not b.counter.2__AT2)))
(let ((.def_505 (or .def_6 .def_9)))
(let ((.def_508 (and .def_505 .def_507)))
(let ((.def_12 (not b.counter.3__AT2)))
(let ((.def_509 (or .def_12 .def_508)))
(let ((.def_511 (and .def_509 .def_510)))
(let ((.def_517 (and .def_511 .def_516)))
(let ((.def_520 (and .def_517 .def_519)))
(let ((.def_500 (<= 0.0 b.delta__AT1)))
(let ((.def_299 (not b.EVENT.0__AT1)))
(let ((.def_297 (not b.EVENT.1__AT1)))
(let ((.def_404 (and .def_297 .def_299)))
(let ((.def_405 (not .def_404)))
(let ((.def_501 (or .def_405 .def_500)))
(let ((.def_502 (or b.EVENT.1__AT1 .def_501)))
(let ((.def_449 (= b.counter.0__AT2 b.counter.0__AT1)))
(let ((.def_447 (= b.counter.1__AT2 b.counter.1__AT1)))
(let ((.def_445 (= b.counter.2__AT2 b.counter.2__AT1)))
(let ((.def_444 (= b.counter.3__AT2 b.counter.3__AT1)))
(let ((.def_446 (and .def_444 .def_445)))
(let ((.def_448 (and .def_446 .def_447)))
(let ((.def_450 (and .def_448 .def_449)))
(let ((.def_497 (or .def_405 .def_450)))
(let ((.def_498 (or b.EVENT.1__AT1 .def_497)))
(let ((.def_457 (= b.x__AT1 b.x__AT2)))
(let ((.def_454 (= b.y__AT1 b.y__AT2)))
(let ((.def_491 (and .def_454 .def_457)))
(let ((.def_385 (= b.speed_x__AT1 b.speed_x__AT2)))
(let ((.def_492 (and .def_385 .def_491)))
(let ((.def_443 (= b.speed_y__AT1 b.speed_y__AT2)))
(let ((.def_493 (and .def_443 .def_492)))
(let ((.def_488 (= b.delta__AT1 0.0 )))
(let ((.def_489 (and .def_404 .def_488)))
(let ((.def_490 (not .def_489)))
(let ((.def_494 (or .def_490 .def_493)))
(let ((.def_495 (or b.EVENT.1__AT1 .def_494)))
(let ((.def_468 (= b.time__AT1 b.time__AT2)))
(let ((.def_480 (and .def_457 .def_468)))
(let ((.def_481 (and .def_454 .def_480)))
(let ((.def_482 (and .def_385 .def_481)))
(let ((.def_483 (and .def_443 .def_482)))
(let ((.def_484 (and .def_450 .def_483)))
(let ((.def_485 (or .def_297 .def_484)))
(let ((.def_471 (* (- 1.0) b.time__AT2)))
(let ((.def_474 (+ b.delta__AT1 .def_471)))
(let ((.def_475 (+ b.time__AT1 .def_474)))
(let ((.def_476 (= .def_475 0.0 )))
(let ((.def_477 (or .def_405 .def_476)))
(let ((.def_478 (or b.EVENT.1__AT1 .def_477)))
(let ((.def_469 (or .def_404 .def_468)))
(let ((.def_470 (or b.EVENT.1__AT1 .def_469)))
(let ((.def_479 (and .def_470 .def_478)))
(let ((.def_486 (and .def_479 .def_485)))
(let ((.def_464 (= .def_405 b.event_is_timed__AT2)))
(let ((.def_462 (= b.event_is_timed__AT1 .def_404)))
(let ((.def_465 (and .def_462 .def_464)))
(let ((.def_451 (and .def_443 .def_450)))
(let ((.def_407 (= b.y__AT1 0.0 )))
(let ((.def_320 (<= 0.0 b.speed_y__AT1)))
(let ((.def_321 (not .def_320)))
(let ((.def_408 (and .def_321 .def_407)))
(let ((.def_452 (or .def_408 .def_451)))
(let ((.def_420 (or .def_6 b.counter.0__AT1)))
(let ((.def_419 (or b.counter.0__AT2 .def_201)))
(let ((.def_421 (and .def_419 .def_420)))
(let ((.def_422 (and .def_4 .def_421)))
(let ((.def_423 (or b.counter.1__AT1 .def_422)))
(let ((.def_418 (or b.counter.1__AT2 .def_189)))
(let ((.def_424 (and .def_418 .def_423)))
(let ((.def_435 (and .def_9 .def_424)))
(let ((.def_436 (or b.counter.2__AT1 .def_435)))
(let ((.def_430 (and .def_4 .def_201)))
(let ((.def_431 (or b.counter.1__AT1 .def_430)))
(let ((.def_432 (and .def_418 .def_431)))
(let ((.def_433 (and b.counter.2__AT2 .def_432)))
(let ((.def_434 (or .def_196 .def_433)))
(let ((.def_437 (and .def_434 .def_436)))
(let ((.def_438 (and b.counter.3__AT2 .def_437)))
(let ((.def_439 (or b.counter.3__AT1 .def_438)))
(let ((.def_425 (and b.counter.2__AT2 .def_424)))
(let ((.def_426 (or b.counter.2__AT1 .def_425)))
(let ((.def_414 (or b.counter.1__AT2 b.counter.1__AT1)))
(let ((.def_412 (and .def_4 b.counter.0__AT2)))
(let ((.def_413 (or .def_189 .def_412)))
(let ((.def_415 (and .def_413 .def_414)))
(let ((.def_416 (and .def_9 .def_415)))
(let ((.def_417 (or .def_196 .def_416)))
(let ((.def_427 (and .def_417 .def_426)))
(let ((.def_428 (and .def_12 .def_427)))
(let ((.def_429 (or .def_211 .def_428)))
(let ((.def_440 (and .def_429 .def_439)))
(let ((.def_183 (* (- 1.0) speed_loss__AT0)))
(let ((.def_184 (+ 1.0 .def_183)))
(let ((.def_163 (* (- 1.0) b.speed_y__AT1)))
(let ((.def_410 (* .def_163 .def_184)))
(let ((.def_411 (= b.speed_y__AT2 .def_410)))
(let ((.def_441 (and .def_411 .def_440)))
(let ((.def_409 (not .def_408)))
(let ((.def_442 (or .def_409 .def_441)))
(let ((.def_453 (and .def_442 .def_452)))
(let ((.def_455 (and .def_453 .def_454)))
(let ((.def_456 (and .def_385 .def_455)))
(let ((.def_458 (and .def_456 .def_457)))
(let ((.def_459 (or .def_404 .def_458)))
(let ((.def_460 (or b.EVENT.1__AT1 .def_459)))
(let ((.def_395 (* (- 1.0) b.y__AT2)))
(let ((.def_311 (* b.speed_y__AT1 b.delta__AT1)))
(let ((.def_399 (+ .def_311 .def_395)))
(let ((.def_309 (* b.delta__AT1 b.delta__AT1)))
(let ((.def_310 (* .def_75 .def_309)))
(let ((.def_400 (+ .def_310 .def_399)))
(let ((.def_401 (+ b.y__AT1 .def_400)))
(let ((.def_402 (= .def_401 0.0 )))
(let ((.def_389 (* (- 1.0) b.speed_y__AT2)))
(let ((.def_387 (* .def_74 b.delta__AT1)))
(let ((.def_390 (+ .def_387 .def_389)))
(let ((.def_391 (+ b.speed_y__AT1 .def_390)))
(let ((.def_392 (= .def_391 0.0 )))
(let ((.def_380 (* (- 1.0) b.x__AT2)))
(let ((.def_378 (* b.speed_x__AT1 b.delta__AT1)))
(let ((.def_381 (+ .def_378 .def_380)))
(let ((.def_382 (+ b.x__AT1 .def_381)))
(let ((.def_383 (= .def_382 0.0 )))
(let ((.def_386 (and .def_383 .def_385)))
(let ((.def_393 (and .def_386 .def_392)))
(let ((.def_403 (and .def_393 .def_402)))
(let ((.def_406 (or .def_403 .def_405)))
(let ((.def_461 (and .def_406 .def_460)))
(let ((.def_466 (and .def_461 .def_465)))
(let ((.def_487 (and .def_466 .def_486)))
(let ((.def_496 (and .def_487 .def_495)))
(let ((.def_499 (and .def_496 .def_498)))
(let ((.def_503 (and .def_499 .def_502)))
(let ((.def_504 (and .def_297 .def_503)))
(let ((.def_521 (and .def_504 .def_520)))
(let ((.def_525 (and .def_521 .def_524)))
(let ((.def_357 (* .def_126 b.delta__AT1)))
(let ((.def_360 (<= .def_357 b.speed_y__AT1)))
(let ((.def_367 (not .def_360)))
(let ((.def_368 (or .def_320 .def_367)))
(let ((.def_358 (<= b.speed_y__AT1 .def_357)))
(let ((.def_334 (<= b.speed_y__AT1 0.0 )))
(let ((.def_335 (not .def_334)))
(let ((.def_366 (or .def_335 .def_358)))
(let ((.def_369 (and .def_366 .def_368)))
(let ((.def_370 (or .def_117 .def_369)))
(let ((.def_362 (not .def_358)))
(let ((.def_363 (or .def_334 .def_362)))
(let ((.def_361 (or .def_321 .def_360)))
(let ((.def_364 (and .def_361 .def_363)))
(let ((.def_365 (or .def_122 .def_364)))
(let ((.def_371 (and .def_365 .def_370)))
(let ((.def_359 (and .def_334 .def_358)))
(let ((.def_372 (and .def_359 .def_371)))
(let ((.def_316 (* .def_82 b.delta__AT1)))
(let ((.def_317 (+ b.speed_y__AT1 .def_316)))
(let ((.def_332 (<= .def_317 0.0 )))
(let ((.def_333 (not .def_332)))
(let ((.def_352 (or .def_333 .def_334)))
(let ((.def_318 (<= 0.0 .def_317)))
(let ((.def_351 (or .def_318 .def_321)))
(let ((.def_353 (and .def_351 .def_352)))
(let ((.def_354 (or .def_122 .def_353)))
(let ((.def_319 (not .def_318)))
(let ((.def_348 (or .def_319 .def_320)))
(let ((.def_347 (or .def_332 .def_335)))
(let ((.def_349 (and .def_347 .def_348)))
(let ((.def_350 (or .def_117 .def_349)))
(let ((.def_355 (and .def_350 .def_354)))
(let ((.def_346 (and .def_318 .def_320)))
(let ((.def_356 (and .def_346 .def_355)))
(let ((.def_373 (or .def_356 .def_372)))
(let ((.def_312 (+ .def_310 .def_311)))
(let ((.def_313 (+ b.y__AT1 .def_312)))
(let ((.def_326 (<= .def_313 0.0 )))
(let ((.def_340 (not .def_326)))
(let ((.def_324 (<= b.y__AT1 0.0 )))
(let ((.def_341 (or .def_324 .def_340)))
(let ((.def_302 (<= 0.0 b.y__AT1)))
(let ((.def_338 (not .def_302)))
(let ((.def_314 (<= 0.0 .def_313)))
(let ((.def_339 (or .def_314 .def_338)))
(let ((.def_342 (and .def_339 .def_341)))
(let ((.def_336 (or .def_333 .def_335)))
(let ((.def_337 (not .def_336)))
(let ((.def_343 (or .def_337 .def_342)))
(let ((.def_328 (not .def_314)))
(let ((.def_329 (or .def_302 .def_328)))
(let ((.def_325 (not .def_324)))
(let ((.def_327 (or .def_325 .def_326)))
(let ((.def_330 (and .def_327 .def_329)))
(let ((.def_322 (or .def_319 .def_321)))
(let ((.def_323 (not .def_322)))
(let ((.def_331 (or .def_323 .def_330)))
(let ((.def_344 (and .def_331 .def_343)))
(let ((.def_315 (and .def_302 .def_314)))
(let ((.def_345 (and .def_315 .def_344)))
(let ((.def_374 (and .def_345 .def_373)))
(let ((.def_375 (and .def_56 .def_374)))
(let ((.def_376 (and .def_64 .def_375)))
(let ((.def_303 (and .def_65 .def_302)))
(let ((.def_300 (or .def_297 .def_299)))
(let ((.def_290 (or .def_189 .def_201)))
(let ((.def_294 (or b.counter.3__AT1 .def_290)))
(let ((.def_291 (or b.counter.2__AT1 .def_290)))
(let ((.def_289 (or .def_196 .def_201)))
(let ((.def_292 (and .def_289 .def_291)))
(let ((.def_293 (or .def_211 .def_292)))
(let ((.def_295 (and .def_293 .def_294)))
(let ((.def_301 (and .def_295 .def_300)))
(let ((.def_304 (and .def_301 .def_303)))
(let ((.def_284 (<= 0.0 b.delta__AT0)))
(let ((.def_49 (not b.EVENT.0__AT0)))
(let ((.def_47 (not b.EVENT.1__AT0)))
(let ((.def_177 (and .def_47 .def_49)))
(let ((.def_178 (not .def_177)))
(let ((.def_285 (or .def_178 .def_284)))
(let ((.def_286 (or b.EVENT.1__AT0 .def_285)))
(let ((.def_233 (= b.counter.0__AT0 b.counter.0__AT1)))
(let ((.def_231 (= b.counter.1__AT0 b.counter.1__AT1)))
(let ((.def_229 (= b.counter.2__AT0 b.counter.2__AT1)))
(let ((.def_228 (= b.counter.3__AT0 b.counter.3__AT1)))
(let ((.def_230 (and .def_228 .def_229)))
(let ((.def_232 (and .def_230 .def_231)))
(let ((.def_234 (and .def_232 .def_233)))
(let ((.def_281 (or .def_178 .def_234)))
(let ((.def_282 (or b.EVENT.1__AT0 .def_281)))
(let ((.def_241 (= b.x__AT1 b.x__AT0)))
(let ((.def_238 (= b.y__AT0 b.y__AT1)))
(let ((.def_275 (and .def_238 .def_241)))
(let ((.def_159 (= b.speed_x__AT0 b.speed_x__AT1)))
(let ((.def_276 (and .def_159 .def_275)))
(let ((.def_227 (= b.speed_y__AT0 b.speed_y__AT1)))
(let ((.def_277 (and .def_227 .def_276)))
(let ((.def_272 (= b.delta__AT0 0.0 )))
(let ((.def_273 (and .def_177 .def_272)))
(let ((.def_274 (not .def_273)))
(let ((.def_278 (or .def_274 .def_277)))
(let ((.def_279 (or b.EVENT.1__AT0 .def_278)))
(let ((.def_252 (= b.time__AT0 b.time__AT1)))
(let ((.def_264 (and .def_241 .def_252)))
(let ((.def_265 (and .def_238 .def_264)))
(let ((.def_266 (and .def_159 .def_265)))
(let ((.def_267 (and .def_227 .def_266)))
(let ((.def_268 (and .def_234 .def_267)))
(let ((.def_269 (or .def_47 .def_268)))
(let ((.def_255 (* (- 1.0) b.time__AT1)))
(let ((.def_258 (+ b.delta__AT0 .def_255)))
(let ((.def_259 (+ b.time__AT0 .def_258)))
(let ((.def_260 (= .def_259 0.0 )))
(let ((.def_261 (or .def_178 .def_260)))
(let ((.def_262 (or b.EVENT.1__AT0 .def_261)))
(let ((.def_253 (or .def_177 .def_252)))
(let ((.def_254 (or b.EVENT.1__AT0 .def_253)))
(let ((.def_263 (and .def_254 .def_262)))
(let ((.def_270 (and .def_263 .def_269)))
(let ((.def_248 (= .def_178 b.event_is_timed__AT1)))
(let ((.def_246 (= b.event_is_timed__AT0 .def_177)))
(let ((.def_249 (and .def_246 .def_248)))
(let ((.def_235 (and .def_227 .def_234)))
(let ((.def_180 (= b.y__AT0 0.0 )))
(let ((.def_87 (<= 0.0 b.speed_y__AT0)))
(let ((.def_88 (not .def_87)))
(let ((.def_181 (and .def_88 .def_180)))
(let ((.def_236 (or .def_181 .def_235)))
(let ((.def_202 (or b.counter.0__AT0 .def_201)))
(let ((.def_30 (not b.counter.0__AT0)))
(let ((.def_200 (or .def_30 b.counter.0__AT1)))
(let ((.def_203 (and .def_200 .def_202)))
(let ((.def_204 (and .def_189 .def_203)))
(let ((.def_205 (or b.counter.1__AT0 .def_204)))
(let ((.def_28 (not b.counter.1__AT0)))
(let ((.def_199 (or .def_28 b.counter.1__AT1)))
(let ((.def_206 (and .def_199 .def_205)))
(let ((.def_219 (and .def_196 .def_206)))
(let ((.def_220 (or b.counter.2__AT0 .def_219)))
(let ((.def_214 (and .def_30 .def_189)))
(let ((.def_215 (or b.counter.1__AT0 .def_214)))
(let ((.def_216 (and .def_199 .def_215)))
(let ((.def_217 (and b.counter.2__AT1 .def_216)))
(let ((.def_33 (not b.counter.2__AT0)))
(let ((.def_218 (or .def_33 .def_217)))
(let ((.def_221 (and .def_218 .def_220)))
(let ((.def_222 (and b.counter.3__AT1 .def_221)))
(let ((.def_223 (or b.counter.3__AT0 .def_222)))
(let ((.def_207 (and b.counter.2__AT1 .def_206)))
(let ((.def_208 (or b.counter.2__AT0 .def_207)))
(let ((.def_193 (or b.counter.1__AT0 b.counter.1__AT1)))
(let ((.def_191 (and .def_189 b.counter.0__AT1)))
(let ((.def_192 (or .def_28 .def_191)))
(let ((.def_194 (and .def_192 .def_193)))
(let ((.def_197 (and .def_194 .def_196)))
(let ((.def_198 (or .def_33 .def_197)))
(let ((.def_209 (and .def_198 .def_208)))
(let ((.def_212 (and .def_209 .def_211)))
(let ((.def_36 (not b.counter.3__AT0)))
(let ((.def_213 (or .def_36 .def_212)))
(let ((.def_224 (and .def_213 .def_223)))
(let ((.def_185 (* (- 1.0) b.speed_y__AT0)))
(let ((.def_186 (* .def_184 .def_185)))
(let ((.def_187 (= b.speed_y__AT1 .def_186)))
(let ((.def_225 (and .def_187 .def_224)))
(let ((.def_182 (not .def_181)))
(let ((.def_226 (or .def_182 .def_225)))
(let ((.def_237 (and .def_226 .def_236)))
(let ((.def_239 (and .def_237 .def_238)))
(let ((.def_240 (and .def_159 .def_239)))
(let ((.def_242 (and .def_240 .def_241)))
(let ((.def_243 (or .def_177 .def_242)))
(let ((.def_244 (or b.EVENT.1__AT0 .def_243)))
(let ((.def_169 (* (- 1.0) b.y__AT1)))
(let ((.def_77 (* b.speed_y__AT0 b.delta__AT0)))
(let ((.def_172 (+ .def_77 .def_169)))
(let ((.def_72 (* b.delta__AT0 b.delta__AT0)))
(let ((.def_76 (* .def_72 .def_75)))
(let ((.def_173 (+ .def_76 .def_172)))
(let ((.def_174 (+ b.y__AT0 .def_173)))
(let ((.def_175 (= .def_174 0.0 )))
(let ((.def_161 (* b.delta__AT0 .def_74)))
(let ((.def_164 (+ .def_161 .def_163)))
(let ((.def_165 (+ b.speed_y__AT0 .def_164)))
(let ((.def_166 (= .def_165 0.0 )))
(let ((.def_151 (* (- 1.0) b.x__AT1)))
(let ((.def_155 (+ .def_151 b.x__AT0)))
(let ((.def_149 (* b.delta__AT0 b.speed_x__AT0)))
(let ((.def_156 (+ .def_149 .def_155)))
(let ((.def_157 (= .def_156 0.0 )))
(let ((.def_160 (and .def_157 .def_159)))
(let ((.def_167 (and .def_160 .def_166)))
(let ((.def_176 (and .def_167 .def_175)))
(let ((.def_179 (or .def_176 .def_178)))
(let ((.def_245 (and .def_179 .def_244)))
(let ((.def_250 (and .def_245 .def_249)))
(let ((.def_271 (and .def_250 .def_270)))
(let ((.def_280 (and .def_271 .def_279)))
(let ((.def_283 (and .def_280 .def_282)))
(let ((.def_287 (and .def_283 .def_286)))
(let ((.def_288 (and .def_47 .def_287)))
(let ((.def_305 (and .def_288 .def_304)))
(let ((.def_31 (and .def_28 .def_30)))
(let ((.def_34 (and .def_31 .def_33)))
(let ((.def_37 (and .def_34 .def_36)))
(let ((.def_306 (and .def_37 .def_305)))
(let ((.def_127 (* b.delta__AT0 .def_126)))
(let ((.def_130 (<= .def_127 b.speed_y__AT0)))
(let ((.def_137 (not .def_130)))
(let ((.def_138 (or .def_87 .def_137)))
(let ((.def_128 (<= b.speed_y__AT0 .def_127)))
(let ((.def_101 (<= b.speed_y__AT0 0.0 )))
(let ((.def_102 (not .def_101)))
(let ((.def_136 (or .def_102 .def_128)))
(let ((.def_139 (and .def_136 .def_138)))
(let ((.def_140 (or .def_117 .def_139)))
(let ((.def_132 (not .def_128)))
(let ((.def_133 (or .def_101 .def_132)))
(let ((.def_131 (or .def_88 .def_130)))
(let ((.def_134 (and .def_131 .def_133)))
(let ((.def_135 (or .def_122 .def_134)))
(let ((.def_141 (and .def_135 .def_140)))
(let ((.def_129 (and .def_101 .def_128)))
(let ((.def_142 (and .def_129 .def_141)))
(let ((.def_83 (* b.delta__AT0 .def_82)))
(let ((.def_84 (+ b.speed_y__AT0 .def_83)))
(let ((.def_99 (<= .def_84 0.0 )))
(let ((.def_100 (not .def_99)))
(let ((.def_120 (or .def_100 .def_101)))
(let ((.def_85 (<= 0.0 .def_84)))
(let ((.def_119 (or .def_85 .def_88)))
(let ((.def_121 (and .def_119 .def_120)))
(let ((.def_123 (or .def_121 .def_122)))
(let ((.def_86 (not .def_85)))
(let ((.def_115 (or .def_86 .def_87)))
(let ((.def_114 (or .def_99 .def_102)))
(let ((.def_116 (and .def_114 .def_115)))
(let ((.def_118 (or .def_116 .def_117)))
(let ((.def_124 (and .def_118 .def_123)))
(let ((.def_113 (and .def_85 .def_87)))
(let ((.def_125 (and .def_113 .def_124)))
(let ((.def_143 (or .def_125 .def_142)))
(let ((.def_78 (+ .def_76 .def_77)))
(let ((.def_79 (+ b.y__AT0 .def_78)))
(let ((.def_93 (<= .def_79 0.0 )))
(let ((.def_107 (not .def_93)))
(let ((.def_91 (<= b.y__AT0 0.0 )))
(let ((.def_108 (or .def_91 .def_107)))
(let ((.def_66 (<= 0.0 b.y__AT0)))
(let ((.def_105 (not .def_66)))
(let ((.def_80 (<= 0.0 .def_79)))
(let ((.def_106 (or .def_80 .def_105)))
(let ((.def_109 (and .def_106 .def_108)))
(let ((.def_103 (or .def_100 .def_102)))
(let ((.def_104 (not .def_103)))
(let ((.def_110 (or .def_104 .def_109)))
(let ((.def_95 (not .def_80)))
(let ((.def_96 (or .def_66 .def_95)))
(let ((.def_92 (not .def_91)))
(let ((.def_94 (or .def_92 .def_93)))
(let ((.def_97 (and .def_94 .def_96)))
(let ((.def_89 (or .def_86 .def_88)))
(let ((.def_90 (not .def_89)))
(let ((.def_98 (or .def_90 .def_97)))
(let ((.def_111 (and .def_98 .def_110)))
(let ((.def_81 (and .def_66 .def_80)))
(let ((.def_112 (and .def_81 .def_111)))
(let ((.def_144 (and .def_112 .def_143)))
(let ((.def_145 (and .def_56 .def_144)))
(let ((.def_146 (and .def_64 .def_145)))
(let ((.def_67 (and .def_65 .def_66)))
(let ((.def_50 (or .def_47 .def_49)))
(let ((.def_40 (or .def_28 .def_30)))
(let ((.def_44 (or b.counter.3__AT0 .def_40)))
(let ((.def_41 (or b.counter.2__AT0 .def_40)))
(let ((.def_39 (or .def_30 .def_33)))
(let ((.def_42 (and .def_39 .def_41)))
(let ((.def_43 (or .def_36 .def_42)))
(let ((.def_45 (and .def_43 .def_44)))
(let ((.def_51 (and .def_45 .def_50)))
(let ((.def_68 (and .def_51 .def_67)))
(let ((.def_25 (= b.speed_y__AT0 0.0 )))
(let ((.def_22 (= b.y__AT0 10.0 )))
(let ((.def_17 (= b.time__AT0 0.0 )))
(let ((.def_19 (and .def_17 b.event_is_timed__AT0)))
(let ((.def_23 (and .def_19 .def_22)))
(let ((.def_26 (and .def_23 .def_25)))
(let ((.def_38 (and .def_26 .def_37)))
(let ((.def_69 (and .def_38 .def_68)))
(let ((.def_7 (and .def_4 .def_6)))
(let ((.def_10 (and .def_7 .def_9)))
(let ((.def_13 (and .def_10 .def_12)))
(let ((.def_14 (not .def_13)))
(let ((.def_70 (and .def_14 .def_69)))
(let ((.def_147 (and .def_70 .def_146)))
(let ((.def_307 (and .def_147 .def_306)))
(let ((.def_377 (and .def_307 .def_376)))
(let ((.def_526 (and .def_377 .def_525)))
(let ((.def_596 (and .def_526 .def_595)))
.def_596)))))))))))))))))))))))))))))))))))))))))))))))))))))))))))))))))))))))))))))))))))))))))))))))))))))))))))))))))))))))))))))))))))))))))))))))))))))))))))))))))))))))))))))))))))))))))))))))))))))))))))))))))))))))))))))))))))))))))))))))))))))))))))))))))))))))))))))))))))))))))))))))))))))))))))))))))))))))))))))))))))))))))))))))))))))))))))))))))))))))))))))))))))))))))))))))))))))))))))))))))))))))))))))))))))))))))))))))))))))))))))))))))))))))))))))))))))))))))))))))))))))))))))))))))))))))))))))))))))))))))))))))))))))))
(check-sat)
(exit)
